p cnf 15 27
-6 11 -12 6 0
-7 12 5 0
-3 5 -2 -1 0
-8 11 0
6 0
-2 -9 0
-8 -15 -6 5 0
-8 -10 0
-8 8 14 -1 0
-14 -12 0
-9 7 0
1 6 0
-8 -15 4 0
11 -4 -3 15 0
1 10 0
12 0
-15 -14 -13 -10 0
-13 -4 15 0
8 12 6 15 0
-3 15 0
8 -7 2 -15 0
8 1 -5 -15 0
3 -4 4 0
-6 -13 0
1 5 6 -10 0
6 0
-8 2 11 0
